10J3M/DAT/10J3MUNX-3.dat
10 3
15.7487 3.9685
30.9516 5.5634
37.7526 6.1443
7.2503 2.6926
10.9998 3.3166
45.3757 6.7361
17.0622 4.1306
48.3716 6.955
28.3959 5.3288
48.1855 6.9416
51.7775