10J3M/SOL/10J3MUNX-3.sol
solution status: optimal solution found
objective value:                     81.0333333333333
x#1#1                                               1 	(obj:0)
x#2#1                               0.113479917718622 	(obj:0)
x#2#3                               0.886520082281378 	(obj:0)
x#3#1                                               1 	(obj:0)
x#4#3                                               1 	(obj:0)
x#5#3                                               1 	(obj:0)
x#6#1                                               1 	(obj:0)
x#7#2                               0.314147827414408 	(obj:0)
x#7#3                               0.685852172585592 	(obj:0)
x#8#2                                               1 	(obj:0)
x#9#1                                               1 	(obj:0)
x#10#2                                              1 	(obj:0)
z                                    81.0333333333333 	(obj:1)
